tsp_instances/TSP20/instance53.tsp
NODE_COORD_SECTION
0 81 142
1 44 71
2 144 179
3 151 161
4 151 33
5 35 143
6 31 141
7 105 146
8 118 19
9 53 199
10 56 12
11 184 19
12 19 52
13 79 20
14 75 35
15 84 83
16 190 68
17 20 146
18 35 146
19 49 104
