tsp_instances/TSP20/instance53.opt.tour
TOUR_SECTION
1
8
3
4
17
12
5
9
14
15
11
13
2
16
20
6
19
7
18
10
-1